
Gurobi 10.0.1 (win64) logging started Sat Sep  9 15:28:55 2023

Set parameter LogFile to value "results-heuristic-start//log/URT_12_makespan.log"
Gurobi Optimizer version 10.0.1 build v10.0.1rc0 (win64)

CPU model: AMD Ryzen 7 3700X 8-Core Processor, instruction set [SSE2|AVX|AVX2]
Thread count: 8 physical cores, 16 logical processors, using up to 16 threads

Optimize a model with 463 rows, 316 columns and 1886 nonzeros
Model fingerprint: 0x16600beb
Variable types: 45 continuous, 271 integer (270 binary)
Coefficient statistics:
  Matrix range     [1e+00, 1e+06]
  Objective range  [1e+00, 1e+00]
  Bounds range     [1e+00, 1e+00]
  RHS range        [1e+00, 3e+06]

Warning: Completing partial solution with 256 unfixed non-continuous variables out of 271
User MIP start produced solution with objective 1009 (0.00s)
Loaded user MIP start with objective 1009

Presolve removed 60 rows and 116 columns
Presolve time: 0.00s
Presolved: 403 rows, 200 columns, 1805 nonzeros
Variable types: 45 continuous, 155 integer (154 binary)
Found heuristic solution: objective 1008.0000000

Root relaxation: objective 4.000000e+01, 66 iterations, 0.00 seconds (0.00 work units)

    Nodes    |    Current Node    |     Objective Bounds      |     Work
 Expl Unexpl |  Obj  Depth IntInf | Incumbent    BestBd   Gap | It/Node Time

     0     0   40.00000    0    8 1008.00000   40.00000  96.0%     -    0s
H    0     0                      96.0000000   40.00000  58.3%     -    0s
     0     0   40.00000    0   10   96.00000   40.00000  58.3%     -    0s
     0     0   40.75812    0   16   96.00000   40.75812  57.5%     -    0s
H    0     0                      87.0000000   40.75812  53.2%     -    0s
H    0     0                      84.0000000   40.75812  51.5%     -    0s
     0     0   41.85801    0   28   84.00000   41.85801  50.2%     -    0s
     0     0   42.37872    0   28   84.00000   42.37872  49.5%     -    0s
     0     0   42.37872    0   26   84.00000   42.37872  49.5%     -    0s
     0     0   42.37872    0   28   84.00000   42.37872  49.5%     -    0s
     0     0   42.37872    0   27   84.00000   42.37872  49.5%     -    0s
     0     0   42.86238    0   31   84.00000   42.86238  49.0%     -    0s
     0     0   42.87222    0   31   84.00000   42.87222  49.0%     -    0s
     0     0   42.87434    0   30   84.00000   42.87434  49.0%     -    0s
     0     0   42.87615    0   29   84.00000   42.87615  49.0%     -    0s
     0     0   42.87615    0   29   84.00000   42.87615  49.0%     -    0s
     0     0   43.00265    0   29   84.00000   43.00265  48.8%     -    0s
     0     0   43.00265    0   30   84.00000   43.00265  48.8%     -    0s
     0     0   43.00265    0   27   84.00000   43.00265  48.8%     -    0s
     0     0   43.05445    0   29   84.00000   43.05445  48.7%     -    0s
     0     0   43.05445    0   29   84.00000   43.05445  48.7%     -    0s
     0     0   43.05554    0   25   84.00000   43.05554  48.7%     -    0s
     0     0   44.00000    0   10   84.00000   44.00000  47.6%     -    0s
     0     0   44.00000    0   12   84.00000   44.00000  47.6%     -    0s
     0     0   44.00000    0   12   84.00000   44.00000  47.6%     -    0s
     0     0   44.00000    0    9   84.00000   44.00000  47.6%     -    0s
     0     0   44.00000    0    9   84.00000   44.00000  47.6%     -    0s
     0     0   44.00000    0   16   84.00000   44.00000  47.6%     -    0s
H    0     0                      82.0000000   44.00000  46.3%     -    0s
     0     0   44.00000    0   10   82.00000   44.00000  46.3%     -    0s
     0     0   44.00000    0   16   82.00000   44.00000  46.3%     -    0s
     0     0   44.00000    0   11   82.00000   44.00000  46.3%     -    0s
     0     0   44.00000    0    3   82.00000   44.00000  46.3%     -    0s
H    0     2                      81.0000000   44.00000  45.7%     -    0s
     0     2   44.00000    0    3   81.00000   44.00000  45.7%     -    0s
H   31    23                      78.0000000   44.00000  43.6%  38.2    0s
H 4469  1226                      77.0000000   46.20711  40.0%   4.6    1s
H 8768  1619                      75.0000000   46.68772  37.7%   3.0    1s
H12422  1730                      73.0000000   46.89099  35.8%   2.4    1s
H12630  1731                      72.0000000   47.00000  34.7%   1.1    3s
 17560  1570   52.04326   39   22   72.00000   50.69868  29.6%   7.0    5s
 30655  2926 infeasible   46        72.00000   54.00000  25.0%  17.2   10s
 42002  1987     cutoff   42        72.00000   58.96953  18.1%  21.2   15s

Cutting planes:
  Learned: 124
  Gomory: 73
  Implied bound: 5
  MIR: 321
  Flow cover: 467
  Inf proof: 4
  Relax-and-lift: 5

Explored 50527 nodes (1176730 simplex iterations) in 17.88 seconds (6.22 work units)
Thread count was 16 (of 16 available processors)

Solution count 10: 72 72 73 ... 87

Optimal solution found (tolerance 1.00e-04)
Best objective 7.200000000000e+01, best bound 7.200000000000e+01, gap 0.0000%
Warning: constraint name "precedence between 0,2 to 0,0 if x_[j,l,h,z,i]=1" has a space
Warning: constraint name "precedence between 0,2 to 0,0 if x_[j,l,h,z,i]=1" has a space
Warning: default constraint names used to write mps file
